(declare-rel loop ((Array Int Int) (Array Int Int) Int Int Int ))
(declare-rel exit ())
(declare-var i Int )
(declare-var i1 Int )
(declare-var i2 Int )
(declare-var i3 Int )
(declare-var i4 Int )
(declare-var i5 Int )
(declare-var i6 Int )
(declare-var i7 Int )
(declare-var i8 Int )
(declare-var s Int )
(declare-var s1 Int )
(declare-var s2 Int )
(declare-var s3 Int )
(declare-var s4 Int )
(declare-var s5 Int )
(declare-var s6 Int )
(declare-var s7 Int )
(declare-var s8 Int )
(declare-var index_limit Int )
(declare-var a_i Int )
(declare-var a_i1 Int )
(declare-var a_i2 Int )
(declare-var a_i3 Int )
(declare-var a_i5 Int )
(declare-var a_i4 Int )
(declare-var a_i6 Int )
(declare-var a_i7 Int )
(declare-var b_i Int )
(declare-var b_i1 Int )
(declare-var b_i2 Int )
(declare-var b_i3 Int )
(declare-var b_i4 Int )
(declare-var b_i5 Int )
(declare-var b_i6 Int )
(declare-var b_i7 Int )
(declare-var count Int )
(declare-var a_array (Array Int Int) )
(declare-var a_array1 (Array Int Int) )
(declare-var a_array2 (Array Int Int) )
(declare-var a_array3 (Array Int Int) )
(declare-var a_array4 (Array Int Int) )
(declare-var a_array5 (Array Int Int) )
(declare-var a_array6 (Array Int Int) )
(declare-var a_array7 (Array Int Int) )
(declare-var a_array8 (Array Int Int) )
(declare-var b_array (Array Int Int) )

(rule (=> 
	(and 
		(= i 0)
		(= s 0)
	)
	(loop a_array b_array i s count)
))
(rule (=> 
	(and 
		(loop a_array b_array i s count)

		(< i (* count 8))
		
		(= b_i (select b_array i))
		(= a_i (* (+ s 2) b_i))
		(= a_array1 (store a_array i a_i))

		(= b_i1 (select b_array (+ i 1)))
		(= a_i1 (* (+ s 4) b_i1))
		(= a_array2 (store a_array1 (+ i 1) a_i1))

		(= b_i2 (select b_array (+ i 2)))
		(= a_i2 (* (+ s 6) b_i2))
		(= a_array3 (store a_array2 (+ i 2) a_i2))

		(= b_i3 (select b_array (+ i 3)))
		(= a_i3 (* (+ s 8) b_i3))
		(= a_array4 (store a_array3 (+ i 3) a_i3))

		(= b_i4 (select b_array (+ i 4)))
		(= a_i4 (* (+ s 10) b_i4))
		(= a_array5 (store a_array4 (+ i 4) a_i4))

		(= b_i5 (select b_array (+ i 5)))
		(= a_i5 (* (+ s 12) b_i5))
		(= a_array6 (store a_array5 (+ i 5) a_i5))

		(= b_i6 (select b_array (+ i 6)))
		(= a_i6 (* (+ s 14) b_i6))
		(= a_array7 (store a_array6 (+ i 6) a_i6))

		(= b_i7 (select b_array (+ i 7)))
		(= a_i7 (* (+ s 16) b_i7))
		(= a_array8 (store a_array7 (+ i 7) a_i7))
	)
	(loop a_array8 b_array (+ i 8) (+ s 16) count)
))
(rule (=> 
	(and 
		(loop a_array b_array i s count)
		(not (< i (* count 8)))
	)
	exit
))
(query exit)